
Gurobi 11.0.3 (linux64) logging started Mon 18 Nov 2024 10:30:30 PM CST

Set parameter LogFile to value "/home/dlcole3/graph_abstraction/hierarchical_graphs/git_storage/CS1/HP_low_reserves/gurobi_logs/serial/logfile_ST17_3.log"

Gurobi 11.0.3 (linux64) logging started Mon 18 Nov 2024 10:33:39 PM CST

Set parameter LogFile to value "/home/dlcole3/graph_abstraction/hierarchical_graphs/git_storage/CS1/HP_low_reserves/gurobi_logs/serial/logfile_ST17_3.log"
Gurobi Optimizer version 11.0.3 build v11.0.3rc0 (linux64 - "Ubuntu 18.04.3 LTS")

CPU model: Intel(R) Xeon(R) CPU E5-2698 v4 @ 2.20GHz, instruction set [SSE2|AVX|AVX2]
Thread count: 40 physical cores, 80 logical processors, using up to 20 threads

Optimize a model with 29168 rows, 50688 columns and 136175 nonzeros
Model fingerprint: 0xda8027ac
Variable types: 46944 continuous, 3744 integer (3744 binary)
Coefficient statistics:
  Matrix range     [6e-01, 2e+04]
  Objective range  [2e+00, 2e+04]
  Bounds range     [5e-02, 2e+05]
  RHS range        [5e-02, 7e+03]
Presolve removed 14542 rows and 38958 columns
Presolve time: 0.45s
Presolved: 14626 rows, 11730 columns, 62789 nonzeros
Variable types: 8669 continuous, 3061 integer (3061 binary)
Found heuristic solution: objective 177084.08792
Found heuristic solution: objective 141197.37729

Root relaxation: objective 3.352623e+04, 8684 iterations, 0.69 seconds (0.45 work units)

    Nodes    |    Current Node    |     Objective Bounds      |     Work
 Expl Unexpl |  Obj  Depth IntInf | Incumbent    BestBd   Gap | It/Node Time

     0     0 33526.2269    0   58 141197.377 33526.2269  76.3%     -    2s
     0     0 33526.2269    0   58 141197.377 33526.2269  76.3%     -    2s
     0     2 33526.2269    0   58 141197.377 33526.2269  76.3%     -    3s
H   31    52                    42518.698488 33526.3078  21.1%   158    3s
H   34    52                    36529.127428 33526.3078  8.22%   149    3s
H   35    52                    35526.859963 33526.3078  5.63%   157    3s
H   38    52                    35405.889741 33526.3078  5.31%   160    3s
H   92   102                    34739.830887 33530.5675  3.48%   100    4s
H   94   102                    34554.367924 33530.5675  2.96%   102    4s
H  102   102                    34489.380916 33530.5675  2.78%  96.7    4s
H  162    79                    34395.125688 33530.5675  2.51%  69.1    4s
H  199    93                    34334.880694 33530.5675  2.34%  58.8    4s
H  335   170                    34328.916187 33865.4176  1.35%  40.4    4s
H  349   170                    34270.687160 33865.4176  1.18%  39.1    4s
H  349   170                    34269.958388 33865.4176  1.18%  39.1    4s
   487   160     cutoff    8      34269.9584 33866.0307  1.18%  30.7    5s

Explored 1871 nodes (37190 simplex iterations) in 6.71 seconds (5.38 work units)
Thread count was 20 (of 80 available processors)

Solution count 10: 34270 34270 34328.9 ... 35526.9

Optimal solution found (tolerance 3.00e-03)
Best objective 3.426995839057e+04, best bound 3.426517374074e+04, gap 0.0140%

User-callback calls 5690, time in user-callback 0.00 sec
